num_offers = 40;
num_halls = 10;
start=[5,17,18,63,53,12,60,20,25,64,19,23,35,11,25,24,2,84,14,75,24,27,36,18,23,75,2,13,4,10,5,32,24,31,53,11,27,60,25,14];
end=[38,59,54,79,90,61,88,67,88,88,49,27,93,76,85,80,29,95,52,88,61,60,42,79,48,82,53,17,20,52,20,41,80,42,64,75,86,75,90,86];
price=[643,1892,1511,529,3581,3769,1220,4389,2709,1960,2281,468,1912,736,4641,5408,2575,459,3148,767,2028,1039,189,3734,1241,532,827,85,553,672,916,165,2990,277,1090,1019,4782,1246,1660,3316];
requirement=[839,533,362,310,714,834,738,897,743,424,354,643,212,867,333,384,572,458,300,529,714,458,439,721,974,952,904,667,767,585,416,899,343,729,531,770,231,737,969,609];
capacity=[884,916,412,353,505,890,564,804,684,756];
